NAME : prob5e
TYPE : PDTSP
DIMENSION : 11
EDGE_WEIGHT_TYPE : EUC_2D
NODE_COORD_SECTION
1 273 525
2 198 789
3 866 518
4 477 169
5 851 257
6 452 972
7 280 733
8 661 177
9 780 543
10 370 170
11 615 287
PICKUP_AND_DELIVERY_SECTION
1 0 0 0 0 0 0
2 0 0 0 0 7 0
3 0 0 0 0 8 0
4 0 0 0 0 9 0
5 0 0 0 0 10 0
6 0 0 0 0 11 0
7 0 0 0 0 0 2
8 0 0 0 0 0 3
9 0 0 0 0 0 4
10 0 0 0 0 0 5
11 0 0 0 0 0 6
DEPOT_SECTION
1 
-1
EOF
